StudentsNr = 10;
InstructorsNr = 5;
DaysNr = 1;
SlotsPerDay = 15;
AvailabilitySlotsLenght = 3;
RoomNr = 1;
ProgrammNr = 1;
DegreeNr = 1;
RolesNr = 4;
CoursesNr = 1;
InstructorsProgramm = [{1}, {1}, {1}, {1}, {1}];
InstructorRolesPerProgramm = [|{1, 2, 4}, {3, 4, 5}, {1, 3, 5}, {1, 2, 4, 5}|];
InstructorsAvailability = [|1, 1, 1, 1, 0, |1, 1, 1, 1, 1, |0, 1, 1, 1, 1, |1, 1, 1, 1, 1, |0, 1, 1, 1, 1|];
StudentsProgramm = [1, 1, 1, 1, 1, 1, 1, 1, 1, 1];
StudentsDegree = [1, 1, 1, 1, 1, 1, 1, 1, 1, 1];
StudentsSupervisorId = [1, 4, 5, 5, 4, 1, 1, 2, 3, 4];
StudentsCourseIds = [{}, {}, {}, {}, {}, {}, {}, {}, {}, {}];
StudentsAvailability = [|0, 0, 0, 0, 0, |1, 1, 1, 1, 1, |0, 1, 1, 1, 1, |1, 1, 1, 1, 0, |0, 1, 1, 1, 0, |1, 0, 1, 1, 0, |1, 1, 1, 1, 1, |1, 1, 1, 1, 1, |0, 1, 1, 1, 1, |0, 1, 1, 1, 1|];
TheoryticalMinCard = [0, 0, 0, 0, 0, 0, 0, 0, 0, 0];
CoursesInstructorIds = [{1, 2, 3, 4}];
RolesDemands = [3, 3, 2, 1];
RolesContinuity = [3];
ExamLen = [2, 2, 2, 2, 2, 2, 2, 2, 2, 2];
LunchTsMinLen = 0;
LunchStarts = [4..10];
SupervisorAvailable = 0;
OptimalLunchLenght = [0, 1];
OptimalStartTs = [1, 0];
OptimalFinishTs = [2, 14];
MinimizeRooms = 400;
RolesSoftContinuity = [|1, 2, 3, 4|3, 1, 4, 1|];
SameDegreeInRoom = 0;
Mergeability = 1;
